results-backup/results-heuristic/Fattahi_setup_19_modified.fjs
1 473
2 786
4 930
7 1094
1 248
2 538
7 667
8 930
1 0
7 87
6 232
8 385
2 0
5 65
4 260
5 464
1 100
7 248
2 420
8 752
2 77
5 259
7 471
4 662
2 242
3 640
6 816
5 1016
4 0
6 399
6 639
7 832
3 0
3 170
7 366
8 564
3 369
5 731
6 1012
8 1278
2 625
3 789
7 999
8 1094
