results-backup/results-MIP-models/sol/Fattahi_setup_19_modified.sol
# Solution for model F-JSSP-SDST
# Objective value = 9709
B0(13) 0
B1(27) 0
B2(35) 1
B3(32) 0
B4(29) 0
B5(38) 1
B6(32) 0
B7(41) 1
B8(38) 0
B9(37) 0
B10(20) 1
B11(12) 1
B12(36) 0
B13(36) 0
B14(23) 1
B15(42) 0
B16(32) 0
B17(32) 1
B18(42) 1
B19(19) 0
B20(11) 0
B21(23) 1
B22(32) 0
B23(34) 0
B24(30) 1
B25(31) 0
B26(40) 0
B27(34) 1
B28(34) 0
B29(19) 1
B30(11) 1
B31(23) 0
B32(33) 0
B33(41) 1
B34(28) 0
B35(34) 1
B36(41) 0
B37(34) 1
B38(26) 0
B39(34) 0
B40(12) 1
B41(33) 1
B42(29) 0
B43(43) 0
B44(44) 0
B45(35) 0
B46(27) 1
B47(20) 1
B48(35) 0
B49(26) 1
B50(38) 0
B51(34) 0
B52(34) 1
B53(38) 0
B54(43) 0
B55(44) 0
B56(33) 0
B57(35) 1
B58(32) 0
B59(35) 1
B60(37) 1
B61(25) 0
B62(38) 1
B63(45) 0
B64(46) 1
B65(33) 0
B66(33) 0
B67(20) 0
B68(45) 1
B69(27) 1
B70(33) 0
B71(35) 1
B72(43) 0
B73(43) 1
B74(35) 0
B75(34) 0
B76(34) 0
B77(19) 1
B78(24) 0
B79(36) 1
B80(36) 1
B81(27) 0
B82(39) 0
B83(31) 1
B84(31) 0
B85(19) 1
B86(28) 1
B87(34) 0
B88(36) 1
B89(44) 0
B90(44) 1
B91(36) 0
B92(35) 0
B93(35) 1
B94(20) 0
B95(24) 1
B96(32) 0
B97(32) 1
B98(27) 0
B99(39) 0
B100(31) 1
B101(31) 0
B102(19) 1
B103(0) 0
B104(2) 0
B105(0) 0
B106(0) 0
B107(4) 0
B108(4) 0
B109(0) 0
B110(0) 0
B111(4) 0
B112(2) 0
B113(0) 0
B114(0) 0
B115(4) 0
B116(2) 0
B117(0) 0
B118(0) 0
B119(6) 0
B120(0) 0
B121(2) 0
B122(0) 0
B123(4) 0
B124(2) 0
B125(0) 0
B126(0) 0
B127(4) 0
B128(2) 0
B129(0) 0
B130(0) 0
B131(2) 0
B132(0) 0
B133(0) 0
B134(0) 0
B135(4) 0
B136(2) 0
B137(0) 0
B138(0) 0
B139(2) 0
B140(0) 0
B141(0) 0
B142(0) 0
B143(4) 0
B144(2) 0
B145(0) 0
B146(0) 0
B147(2) 1
B148(0) 0
B149(4) 0
B150(2) 0
B151(0) 0
B152(2) 0
B153(2) 0
B154(0) 0
B155(2) 0
B156(4) 0
B157(2) 0
B158(0) 0
B159(2) 0
B160(0) 0
B161(2) 0
B162(0) 0
B163(2) 0
B164(4) 0
B165(2) 0
B166(0) 0
B167(4) 0
B168(2) 0
B169(2) 0
B170(4) 0
B171(2) 0
B172(0) 0
B173(2) 0
B174(0) 0
B175(2) 0
B176(0) 0
B177(2) 0
B178(2) 0
B179(2) 0
B180(2) 0
B181(2) 0
B182(0) 0
B183(2) 0
B184(0) 0
B185(2) 0
B186(2) 0
B187(2) 0
B188(2) 0
B189(2) 0
B190(0) 0
B191(0) 0
B192(4) 1
B193(0) 0
B194(2) 0
B195(0) 0
B196(0) 0
B197(4) 0
B198(2) 0
B199(0) 0
B200(4) 0
B201(4) 0
B202(0) 0
B203(0) 0
B204(2) 1
B205(2) 0
B206(2) 0
B207(0) 0
B208(6) 0
B209(2) 0
B210(0) 0
B211(2) 0
B212(4) 0
B213(4) 0
B214(4) 0
B215(0) 0
B216(2) 0
B217(4) 0
B218(2) 0
B219(2) 0
B220(2) 0
B221(4) 0
B222(2) 0
B223(0) 0
B224(2) 0
B225(4) 0
B226(0) 0
B227(2) 0
B228(2) 0
B229(4) 0
B230(2) 0
B231(0) 0
B232(2) 0
B233(4) 0
B234(0) 0
B235(0) 0
B236(2) 1
B237(2) 1
B238(0) 0
B239(0) 0
B240(0) 0
B241(2) 0
B242(2) 0
B243(0) 0
B244(2) 0
B245(0) 0
B246(2) 1
B247(0) 0
B248(0) 0
B249(0) 0
B250(0) 0
B251(0) 0
B252(2) 0
B253(0) 0
B254(2) 0
B255(0) 0
B256(0) 0
B257(2) 0
B258(2) 1
B259(0) 0
B260(0) 0
B261(2) 0
B262(2) 0
B263(0) 0
B264(0) 0
B265(2) 0
B266(4) 0
B267(0) 0
B268(0) 0
B269(2) 0
B270(2) 0
B271(0) 0
B272(0) 0
B273(2) 0
B274(4) 0
B275(0) 0
B276(0) 0
B277(2) 0
B278(2) 0
B279(0) 0
B280(0) 0
B281(0) 0
B282(0) 0
B283(0) 0
B284(2) 0
B285(0) 0
B286(0) 0
B287(2) 0
B288(2) 0
B289(0) 0
B290(0) 0
B291(2) 1
B292(2) 0
B293(0) 0
B294(0) 0
B295(4) 1
B296(0) 0
B297(0) 0
B298(0) 0
B299(2) 0
B300(2) 0
B301(0) 0
B302(0) 0
B303(2) 0
B304(2) 0
B305(0) 0
B306(0) 0
B307(2) 0
B308(0) 0
B309(0) 0
B310(0) 0
B311(2) 0
B312(2) 0
B313(0) 0
B314(0) 0
B315(2) 0
B316(0) 0
B317(0) 0
B318(0) 0
B319(2) 0
B320(2) 0
B321(0) 0
B322(0) 0
B323(0) 0
B324(0) 0
B325(0) 0
B326(0) 0
B327(2) 1
B328(0) 0
B329(0) 0
B330(0) 0
B331(2) 1
B332(2) 0
B333(0) 0
B334(0) 0
B335(2) 0
B336(2) 0
B337(0) 0
B338(0) 0
B339(4) 0
B340(0) 0
B341(2) 1
B342(0) 0
B343(4) 1
B344(2) 0
B345(0) 0
B346(0) 0
B347(4) 0
B348(2) 0
B349(0) 0
B350(0) 0
B351(2) 0
B352(0) 0
B353(0) 0
B354(0) 0
B355(4) 0
B356(2) 0
B357(0) 0
B358(0) 0
B359(2) 0
B360(0) 0
B361(0) 0
B362(0) 0
B363(4) 1
B364(2) 0
B365(0) 0
B366(0) 0
B367(0) 0
B368(0) 0
B369(0) 0
B370(0) 0
B371(0) 0
B372(0) 0
B373(0) 0
B374(2) 0
B375(0) 0
B376(2) 0
B377(4) 0
B378(2) 0
B379(0) 0
B380(2) 1
B381(2) 0
B382(4) 0
B383(0) 0
B384(4) 1
B385(4) 0
B386(2) 0
B387(0) 0
B388(2) 0
B389(6) 1
B390(2) 1
B391(0) 0
B392(2) 0
B393(6) 0
B394(2) 0
B395(0) 0
B396(4) 0
B397(6) 0
B398(2) 0
B399(0) 0
B400(0) 0
B401(4) 0
B402(2) 0
B403(0) 0
B404(4) 0
B405(6) 0
B406(2) 0
B407(0) 0
B408(0) 0
B409(4) 0
B410(2) 0
B411(0) 0
B412(0) 0
B413(0) 0
B414(0) 0
B415(0) 0
B416(0) 0
B417(2) 1
B418(0) 0
B419(0) 0
B420(0) 0
B421(2) 1
B422(2) 0
B423(0) 0
B424(2) 1
B425(0) 0
B426(2) 0
B427(0) 0
B428(2) 1
B429(2) 0
B430(2) 0
B431(0) 0
B432(2) 0
B433(2) 1
B434(0) 0
B435(0) 0
B436(2) 0
B437(2) 1
B438(4) 1
B439(0) 0
B440(2) 0
B441(2) 0
B442(2) 0
B443(0) 0
B444(0) 0
B445(2) 0
B446(2) 0
B447(0) 0
B448(2) 0
B449(2) 0
B450(2) 0
B451(0) 0
B452(0) 0
B453(2) 1
B454(2) 0
B455(0) 0
B456(0) 0
B457(0) 0
B458(0) 0
B459(0) 0
B460(0) 0
B461(0) 0
B462(0) 0
B463(0) 0
B464(0) 0
B465(0) 0
B466(0) 0
B467(4) 1
B468(0) 0
B469(0) 0
B470(0) 0
B471(4) 1
B472(0) 0
B473(2) 0
B474(0) 0
B475(2) 0
B476(0) 0
B477(0) 0
B478(0) 0
B479(2) 0
B480(0) 0
B481(0) 0
B482(0) 0
B483(0) 0
B484(0) 0
B485(0) 0
B486(0) 0
B487(2) 0
B488(0) 0
B489(0) 0
B490(0) 0
B491(0) 0
B492(0) 0
B493(0) 0
B494(0) 0
B495(2) 0
B496(0) 0
B497(0) 0
B498(0) 0
B499(0) 0
B500(0) 0
B501(0) 0
B502(0) 0
B503(0) 0
B504(0) 0
B505(0) 0
B506(0) 0
B507(0) 0
B508(0) 0
B509(2) 0
B510(0) 0
B511(0) 0
B512(2) 1
B513(2) 0
B514(0) 0
B515(2) 0
B516(4) 0
B517(0) 0
B518(0) 0
B519(4) 0
B520(4) 0
B521(2) 0
B522(4) 0
B523(2) 1
B524(2) 0
B525(2) 0
B526(0) 0
B527(4) 0
B528(0) 0
B529(2) 0
B530(2) 0
B531(2) 1
B532(4) 0
B533(2) 0
B534(0) 0
B535(4) 0
B536(0) 0
B537(2) 0
B538(2) 0
B539(2) 0
B540(4) 0
B541(2) 0
B542(0) 0
B543(0) 0
B544(0) 0
B545(0) 0
B546(0) 0
B547(0) 0
B548(0) 0
B549(0) 0
B550(0) 0
B551(0) 0
B552(2) 1
B553(0) 0
B554(2) 0
B555(0) 0
B556(2) 0
B557(4) 0
B558(4) 0
B559(0) 0
B560(4) 0
B561(4) 0
B562(2) 0
B563(2) 0
B564(4) 0
B565(4) 0
B566(2) 0
B567(0) 0
B568(2) 0
B569(4) 0
B570(2) 0
B571(2) 0
B572(4) 0
B573(4) 0
B574(0) 0
B575(0) 0
B576(2) 0
B577(2) 0
B578(2) 0
B579(2) 0
B580(4) 0
B581(4) 0
B582(0) 0
B583(0) 0
B584(2) 0
B585(2) 0
B586(2) 0
B587(0) 0
B588(0) 0
B589(0) 0
B590(0) 0
B591(0) 0
B592(0) 0
B593(0) 0
B594(0) 0
B595(0) 0
B596(0) 0
B597(2) 1
B598(0) 0
B599(0) 0
B600(0) 0
B601(2) 0
B602(2) 0
B603(0) 0
B604(0) 0
B605(2) 0
B606(4) 0
B607(0) 0
B608(0) 0
B609(2) 0
B610(0) 0
B611(0) 0
B612(0) 0
B613(2) 0
B614(2) 0
B615(0) 0
B616(2) 0
B617(2) 0
B618(2) 0
B619(0) 0
B620(0) 0
B621(0) 0
B622(4) 0
B623(0) 0
B624(2) 0
B625(2) 0
B626(2) 0
B627(0) 0
B628(0) 0
B629(0) 0
B630(4) 0
B631(0) 0
B632(0) 0
B633(0) 0
B634(0) 0
B635(0) 0
B636(0) 0
B637(0) 0
B638(0) 0
B639(0) 0
B640(0) 0
B641(0) 0
B642(0) 0
B643(0) 0
B644(0) 0
B645(0) 0
B646(0) 0
B647(4) 0
B648(0) 0
B649(2) 0
B650(0) 0
B651(2) 0
B652(0) 0
B653(0) 0
B654(0) 0
B655(2) 0
B656(0) 0
B657(0) 0
B658(0) 0
B659(0) 0
B660(0) 0
B661(0) 0
B662(0) 0
B663(2) 0
B664(0) 0
B665(0) 0
B666(0) 0
B667(0) 0
B668(0) 0
B669(0) 0
B670(0) 0
B671(2) 0
B672(0) 0
B673(0) 0
B674(0) 0
B675(0) 0
B676(0) 0
B677(0) 0
B678(0) 0
B679(0) 0
B680(0) 0
B681(0) 0
B682(0) 0
B683(0) 0
B684(0) 0
B685(0) 0
B686(0) 0
B687(0) 0
B688(0) 0
B689(0) 0
B690(2) 0
B691(2) 0
B692(2) 0
B693(2) 0
B694(0) 0
B695(2) 0
B696(4) 0
B697(2) 0
B698(0) 0
B699(2) 1
B700(4) 1
B701(2) 0
B702(2) 0
B703(2) 0
B704(2) 0
B705(2) 0
B706(0) 0
B707(2) 1
B708(2) 0
B709(2) 0
B710(0) 0
B711(2) 0
B712(2) 0
B713(2) 0
B714(0) 0
B715(2) 0
B716(2) 0
B717(2) 0
B718(0) 0
B719(0) 0
B720(0) 0
B721(0) 0
B722(0) 0
B723(0) 0
B724(0) 0
B725(0) 0
B726(0) 0
B727(0) 0
B728(0) 0
B729(0) 0
B730(0) 0
B731(0) 0
B732(0) 0
B733(0) 0
B734(2) 0
B735(0) 0
B736(2) 0
B737(2) 0
B738(2) 0
B739(2) 0
B740(2) 1
B741(2) 0
B742(2) 0
B743(0) 0
B744(0) 0
B745(2) 0
B746(0) 0
B747(2) 0
B748(2) 0
B749(2) 0
B750(0) 0
B751(0) 0
B752(2) 0
B753(0) 0
B754(2) 0
B755(2) 0
B756(2) 0
B757(2) 0
B758(0) 0
B759(0) 0
B760(2) 0
B761(0) 0
B762(2) 0
B763(0) 0
B764(0) 0
B765(0) 0
B766(0) 0
B767(0) 0
B768(0) 0
B769(0) 0
B770(0) 0
B771(0) 0
B772(0) 0
B773(0) 0
B774(0) 0
B775(0) 0
B776(2) 1
B777(2) 1
B778(0) 0
B779(0) 0
B780(2) 0
B781(4) 0
B782(2) 0
B783(0) 0
B784(2) 0
B785(4) 0
B786(0) 0
B787(0) 0
B788(2) 0
B789(4) 0
B790(2) 0
B791(0) 0
B792(4) 0
B793(4) 0
B794(0) 0
B795(0) 0
B796(0) 0
B797(2) 0
B798(2) 0
B799(0) 0
B800(4) 0
B801(4) 0
B802(0) 0
B803(0) 0
B804(0) 0
B805(2) 0
B806(2) 0
B807(0) 0
B808(0) 0
B809(0) 0
B810(0) 0
B811(0) 0
B812(0) 0
B813(0) 0
B814(0) 0
B815(0) 0
B816(0) 0
B817(0) 0
B818(0) 0
B819(0) 0
B820(0) 0
B821(0) 0
B822(0) 0
B823(0) 0
B824(0) 0
B825(2) 0
B826(0) 0
B827(4) 0
B828(2) 0
B829(0) 0
B830(0) 0
B831(4) 0
B832(2) 0
B833(0) 0
B834(0) 0
B835(2) 0
B836(0) 0
B837(0) 0
B838(0) 0
B839(4) 1
B840(2) 0
B841(0) 0
B842(0) 0
B843(2) 0
B844(0) 0
B845(0) 0
B846(0) 0
B847(4) 0
B848(2) 0
B849(0) 0
B850(0) 0
B851(0) 0
B852(0) 0
B853(0) 0
B854(0) 0
B855(0) 0
B856(0) 0
B857(0) 0
B858(0) 0
B859(0) 0
B860(0) 0
B861(0) 0
B862(0) 0
B863(0) 0
B864(0) 0
B865(0) 0
B866(0) 0
B867(0) 0
B868(0) 0
B869(2) 0
B870(0) 0
B871(2) 0
B872(4) 0
B873(4) 0
B874(4) 0
B875(0) 0
B876(2) 0
B877(4) 0
B878(2) 0
B879(2) 0
B880(2) 0
B881(4) 0
B882(2) 0
B883(0) 0
B884(2) 0
B885(4) 0
B886(0) 0
B887(2) 0
B888(2) 0
B889(4) 0
B890(2) 0
B891(0) 0
B892(2) 0
B893(4) 0
B894(0) 0
B895(0) 0
B896(0) 0
B897(0) 0
B898(0) 0
B899(0) 0
B900(0) 0
B901(0) 0
B902(0) 0
B903(0) 0
B904(0) 0
B905(0) 0
B906(0) 0
B907(0) 0
B908(0) 0
B909(0) 0
B910(0) 0
B911(2) 1
B912(2) 1
B913(0) 0
B914(2) 0
B915(2) 1
B916(2) 0
B917(4) 0
B918(0) 0
B919(2) 0
B920(2) 0
B921(4) 0
B922(2) 0
B923(0) 0
B924(4) 0
B925(4) 0
B926(0) 0
B927(2) 0
B928(0) 0
B929(2) 0
B930(2) 0
B931(0) 0
B932(4) 0
B933(4) 0
B934(0) 0
B935(2) 1
B936(0) 0
B937(2) 0
B938(2) 0
B939(0) 0
B940(0) 0
B941(0) 0
B942(0) 0
B943(0) 0
B944(0) 0
B945(0) 0
B946(0) 0
B947(0) 0
B948(0) 0
B949(0) 0
B950(0) 0
B951(0) 0
B952(0) 0
B953(0) 0
B954(0) 0
B955(0) 0
B956(0) 0
B957(2) 1
B958(0) 0
B959(0) 0
B960(0) 0
B961(2) 0
B962(0) 0
B963(0) 0
B964(0) 0
B965(2) 0
B966(2) 0
B967(0) 0
B968(2) 0
B969(2) 0
B970(2) 0
B971(0) 0
B972(0) 0
B973(0) 0
B974(4) 0
B975(0) 0
B976(2) 0
B977(2) 0
B978(2) 0
B979(0) 0
B980(0) 0
B981(0) 0
B982(4) 0
B983(0) 0
B984(0) 0
B985(0) 0
B986(0) 0
B987(0) 0
B988(0) 0
B989(0) 0
B990(0) 0
B991(0) 0
B992(0) 0
B993(0) 0
B994(0) 0
B995(0) 0
B996(0) 0
B997(0) 0
B998(0) 0
B999(0) 0
B1000(0) 0
B1001(0) 0
B1002(0) 0
B1003(0) 0
B1004(4) 0
B1005(0) 0
B1006(2) 0
B1007(4) 0
B1008(2) 0
B1009(0) 0
B1010(0) 0
B1011(4) 0
B1012(0) 0
B1013(0) 0
B1014(0) 0
B1015(4) 0
B1016(4) 0
B1017(0) 0
B1018(0) 0
B1019(4) 0
B1020(0) 0
B1021(0) 0
B1022(0) 0
B1023(4) 0
B1024(4) 0
B1025(0) 0
B1026(0) 0
B1027(0) 0
B1028(0) 0
B1029(0) 0
B1030(0) 0
B1031(0) 0
B1032(0) 0
B1033(0) 0
B1034(0) 0
B1035(0) 0
B1036(0) 0
B1037(0) 0
B1038(0) 0
B1039(0) 0
B1040(0) 0
B1041(0) 0
B1042(0) 0
B1043(0) 0
B1044(0) 0
B1045(0) 0
B1046(0) 0
B1047(4) 1
B1048(0) 0
B1049(2) 1
B1050(2) 0
B1051(2) 0
B1052(4) 0
B1053(2) 0
B1054(2) 0
B1055(4) 0
B1056(2) 0
B1057(2) 0
B1058(0) 0
B1059(2) 0
B1060(4) 0
B1061(2) 0
B1062(0) 0
B1063(4) 0
B1064(2) 0
B1065(2) 0
B1066(0) 0
B1067(2) 0
B1068(4) 0
B1069(2) 0
B1070(0) 0
B1071(0) 0
B1072(0) 0
B1073(0) 0
B1074(0) 0
B1075(0) 0
B1076(0) 0
B1077(0) 0
B1078(0) 0
B1079(0) 0
B1080(0) 0
B1081(0) 0
B1082(0) 0
B1083(0) 0
B1084(0) 0
B1085(0) 0
B1086(0) 0
B1087(0) 0
B1088(0) 0
B1089(0) 0
B1090(0) 0
B1091(0) 0
B1092(2) 0
B1093(0) 0
B1094(2) 0
B1095(0) 0
B1096(2) 0
B1097(6) 1
B1098(2) 0
B1099(0) 0
B1100(4) 0
B1101(6) 0
B1102(2) 0
B1103(0) 0
B1104(0) 0
B1105(4) 0
B1106(2) 0
B1107(0) 0
B1108(4) 0
B1109(6) 0
B1110(2) 0
B1111(0) 0
B1112(0) 0
B1113(4) 0
B1114(2) 0
B1115(0) 0
B1116(0) 0
B1117(0) 0
B1118(0) 0
B1119(0) 0
B1120(0) 0
B1121(0) 0
B1122(0) 0
B1123(0) 0
B1124(0) 0
B1125(0) 0
B1126(0) 0
B1127(0) 0
B1128(0) 0
B1129(0) 0
B1130(0) 0
B1131(0) 0
B1132(0) 0
B1133(0) 0
B1134(0) 0
B1135(2) 1
B1136(2) 1
B1137(2) 1
B1138(0) 0
B1139(0) 0
B1140(0) 0
B1141(2) 0
B1142(0) 0
B1143(2) 0
B1144(0) 0
B1145(2) 0
B1146(2) 0
B1147(0) 0
B1148(2) 0
B1149(2) 0
B1150(0) 0
B1151(2) 0
B1152(0) 0
B1153(2) 0
B1154(2) 0
B1155(0) 0
B1156(2) 0
B1157(2) 0
B1158(0) 0
B1159(0) 0
B1160(0) 0
B1161(0) 0
B1162(0) 0
B1163(0) 0
B1164(0) 0
B1165(0) 0
B1166(0) 0
B1167(0) 0
B1168(0) 0
B1169(0) 0
B1170(0) 0
B1171(0) 0
B1172(0) 0
B1173(0) 0
B1174(0) 0
B1175(0) 0
B1176(0) 0
B1177(0) 0
B1178(0) 0
B1179(0) 0
B1180(0) 0
B1181(0) 0
B1182(0) 0
B1183(0) 0
B1184(2) 0
B1185(0) 0
B1186(0) 0
B1187(2) 0
B1188(0) 0
B1189(0) 0
B1190(0) 0
B1191(4) 0
B1192(2) 0
B1193(0) 0
B1194(0) 0
B1195(2) 0
B1196(0) 0
B1197(0) 0
B1198(0) 0
B1199(4) 0
B1200(2) 0
B1201(0) 0
B1202(0) 0
B1203(0) 0
B1204(0) 0
B1205(0) 0
B1206(0) 0
B1207(0) 0
B1208(0) 0
B1209(0) 0
B1210(0) 0
B1211(0) 0
B1212(0) 0
B1213(0) 0
B1214(0) 0
B1215(0) 0
B1216(0) 0
B1217(0) 0
B1218(0) 0
B1219(0) 0
B1220(0) 0
B1221(0) 0
B1222(0) 0
B1223(0) 0
B1224(0) 0
B1225(0) 0
B1226(0) 0
B1227(2) 1
B1228(0) 0
B1229(2) 0
B1230(2) 0
B1231(2) 0
B1232(2) 0
B1233(2) 0
B1234(0) 0
B1235(2) 0
B1236(2) 0
B1237(2) 0
B1238(0) 0
B1239(2) 1
B1240(2) 0
B1241(2) 0
B1242(0) 0
B1243(2) 0
B1244(2) 0
B1245(2) 0
B1246(0) 0
B1247(0) 0
B1248(0) 0
B1249(0) 0
B1250(0) 0
B1251(0) 0
B1252(0) 0
B1253(0) 0
B1254(0) 0
B1255(0) 0
B1256(0) 0
B1257(0) 0
B1258(0) 0
B1259(0) 0
B1260(0) 0
B1261(0) 0
B1262(0) 0
B1263(0) 0
B1264(0) 0
B1265(0) 0
B1266(0) 0
B1267(0) 0
B1268(0) 0
B1269(0) 0
B1270(0) 0
B1271(0) 0
B1272(2) 1
B1273(0) 0
B1274(2) 0
B1275(0) 0
B1276(4) 0
B1277(6) 0
B1278(2) 0
B1279(0) 0
B1280(0) 0
B1281(4) 0
B1282(2) 0
B1283(0) 0
B1284(4) 0
B1285(6) 0
B1286(2) 0
B1287(0) 0
B1288(0) 0
B1289(4) 0
B1290(2) 0
B1291(0) 0
B1292(0) 0
B1293(0) 0
B1294(0) 0
B1295(0) 0
B1296(0) 0
B1297(0) 0
B1298(0) 0
B1299(0) 0
B1300(0) 0
B1301(0) 0
B1302(0) 0
B1303(0) 0
B1304(0) 0
B1305(0) 0
B1306(0) 0
B1307(0) 0
B1308(0) 0
B1309(0) 0
B1310(0) 0
B1311(0) 0
B1312(0) 0
B1313(0) 0
B1314(0) 0
B1315(0) 0
B1316(2) 1
B1317(2) 1
B1318(0) 0
B1319(0) 0
B1320(2) 0
B1321(2) 0
B1322(2) 0
B1323(0) 0
B1324(0) 0
B1325(2) 0
B1326(2) 0
B1327(0) 0
B1328(2) 0
B1329(2) 0
B1330(2) 0
B1331(0) 0
B1332(0) 0
B1333(2) 0
B1334(2) 0
B1335(0) 0
B1336(0) 0
B1337(0) 0
B1338(0) 0
B1339(0) 0
B1340(0) 0
B1341(0) 0
B1342(0) 0
B1343(0) 0
B1344(0) 0
B1345(0) 0
B1346(0) 0
B1347(0) 0
B1348(0) 0
B1349(0) 0
B1350(0) 0
B1351(0) 0
B1352(0) 0
B1353(0) 0
B1354(0) 0
B1355(0) 0
B1356(0) 0
B1357(0) 0
B1358(0) 0
B1359(0) 0
B1360(0) 0
B1361(0) 0
B1362(0) 0
B1363(0) 0
B1364(0) 0
B1365(0) 0
B1366(0) 0
B1367(2) 0
B1368(4) 0
B1369(0) 0
B1370(0) 0
B1371(4) 1
B1372(0) 0
B1373(0) 0
B1374(0) 0
B1375(2) 0
B1376(4) 1
B1377(0) 0
B1378(0) 0
B1379(0) 0
B1380(0) 0
B1381(0) 0
B1382(0) 0
B1383(0) 0
B1384(0) 0
B1385(0) 0
B1386(0) 0
B1387(0) 0
B1388(0) 0
B1389(0) 0
B1390(0) 0
B1391(0) 0
B1392(0) 0
B1393(0) 0
B1394(0) 0
B1395(0) 0
B1396(0) 0
B1397(0) 0
B1398(0) 0
B1399(0) 0
B1400(0) 0
B1401(0) 0
B1402(0) 0
B1403(0) 0
B1404(0) 0
B1405(0) 0
B1406(0) 0
B1407(0) 0
B1408(0) 0
B1409(4) 0
B1410(0) 0
B1411(0) 0
B1412(0) 0
B1413(2) 0
B1414(2) 0
B1415(0) 0
B1416(4) 1
B1417(4) 0
B1418(0) 0
B1419(0) 0
B1420(0) 0
B1421(2) 0
B1422(2) 0
B1423(0) 0
B1424(0) 0
B1425(0) 0
B1426(0) 0
B1427(0) 0
B1428(0) 0
B1429(0) 0
B1430(0) 0
B1431(0) 0
B1432(0) 0
B1433(0) 0
B1434(0) 0
B1435(0) 0
B1436(0) 0
B1437(0) 0
B1438(0) 0
B1439(0) 0
B1440(0) 0
B1441(0) 0
B1442(0) 0
B1443(0) 0
B1444(0) 0
B1445(0) 0
B1446(0) 0
B1447(0) 0
B1448(0) 0
B1449(0) 0
B1450(0) 0
B1451(0) 0
B1452(4) 1
B1453(0) 0
B1454(2) 0
B1455(0) 0
B1456(0) 0
B1457(4) 0
B1458(2) 0
B1459(0) 0
B1460(4) 0
B1461(6) 1
B1462(2) 0
B1463(0) 0
B1464(0) 0
B1465(4) 1
B1466(2) 0
B1467(0) 0
B1468(0) 0
B1469(0) 0
B1470(0) 0
B1471(0) 0
B1472(0) 0
B1473(0) 0
B1474(0) 0
B1475(0) 0
B1476(0) 0
B1477(0) 0
B1478(0) 0
B1479(0) 0
B1480(0) 0
B1481(0) 0
B1482(0) 0
B1483(0) 0
B1484(0) 0
B1485(0) 0
B1486(0) 0
B1487(0) 0
B1488(0) 0
B1489(0) 0
B1490(0) 0
B1491(0) 0
B1492(0) 0
B1493(0) 0
B1494(0) 0
B1495(0) 0
B1496(0) 0
B1497(2) 1
B1498(0) 0
B1499(0) 0
B1500(0) 0
B1501(2) 0
B1502(2) 1
B1503(0) 0
B1504(0) 0
B1505(2) 0
B1506(4) 0
B1507(0) 0
B1508(0) 0
B1509(2) 0
B1510(2) 1
B1511(0) 0
B1512(0) 0
B1513(0) 0
B1514(0) 0
B1515(0) 0
B1516(0) 0
B1517(0) 0
B1518(0) 0
B1519(0) 0
B1520(0) 0
B1521(0) 0
B1522(0) 0
B1523(0) 0
B1524(0) 0
B1525(0) 0
B1526(0) 0
B1527(0) 0
B1528(0) 0
B1529(0) 0
B1530(0) 0
B1531(0) 0
B1532(0) 0
B1533(0) 0
B1534(0) 0
B1535(0) 0
B1536(0) 0
B1537(0) 0
B1538(0) 0
B1539(0) 0
B1540(0) 0
B1541(0) 0
B1542(0) 0
B1543(0) 0
B1544(2) 0
B1545(0) 0
B1546(0) 0
B1547(2) 1
B1548(0) 0
B1549(0) 0
B1550(0) 0
B1551(4) 0
B1552(2) 0
B1553(0) 0
B1554(0) 0
B1555(0) 0
B1556(0) 0
B1557(0) 0
B1558(0) 0
B1559(0) 0
B1560(0) 0
B1561(0) 0
B1562(0) 0
B1563(0) 0
B1564(0) 0
B1565(0) 0
B1566(0) 0
B1567(0) 0
B1568(0) 0
B1569(0) 0
B1570(0) 0
B1571(0) 0
B1572(0) 0
B1573(0) 0
B1574(0) 0
B1575(0) 0
B1576(0) 0
B1577(0) 0
B1578(0) 0
B1579(0) 0
B1580(0) 0
B1581(0) 0
B1582(0) 0
B1583(0) 0
B1584(0) 0
B1585(0) 0
B1586(0) 0
B1587(2) 1
B1588(0) 0
B1589(0) 0
B1590(0) 0
B1591(4) 1
B1592(0) 0
B1593(0) 0
B1594(0) 0
B1595(2) 0
B1596(4) 0
B1597(0) 0
B1598(0) 0
B1599(0) 0
B1600(0) 0
B1601(0) 0
B1602(0) 0
B1603(0) 0
B1604(0) 0
B1605(0) 0
B1606(0) 0
B1607(0) 0
B1608(0) 0
B1609(0) 0
B1610(0) 0
B1611(0) 0
B1612(0) 0
B1613(0) 0
B1614(0) 0
B1615(0) 0
B1616(0) 0
B1617(0) 0
B1618(0) 0
B1619(0) 0
B1620(0) 0
B1621(0) 0
B1622(0) 0
B1623(0) 0
B1624(0) 0
B1625(0) 0
B1626(0) 0
B1627(0) 0
B1628(0) 0
B1629(0) 0
B1630(0) 0
B1631(0) 0
B1632(0) 0
B1633(0) 0
B1634(0) 0
B1635(0) 0
B1636(2) 0
B1637(4) 0
B1638(2) 0
B1639(0) 0
B1640(0) 0
B1641(4) 0
B1642(0) 0
B1643(0) 0
B1644(0) 0
B1645(0) 0
B1646(0) 0
B1647(0) 0
B1648(0) 0
B1649(0) 0
B1650(0) 0
B1651(0) 0
B1652(0) 0
B1653(0) 0
B1654(0) 0
B1655(0) 0
B1656(0) 0
B1657(0) 0
B1658(0) 0
B1659(0) 0
B1660(0) 0
B1661(0) 0
B1662(0) 0
B1663(0) 0
B1664(0) 0
B1665(0) 0
B1666(0) 0
B1667(0) 0
B1668(0) 0
B1669(0) 0
B1670(0) 0
B1671(0) 0
B1672(0) 0
B1673(0) 0
B1674(0) 0
B1675(0) 0
B1676(0) 0
B1677(0) 0
B1678(0) 0
B1679(0) 0
B1680(2) 1
B1681(2) 0
B1682(2) 0
B1683(0) 0
B1684(0) 0
B1685(0) 0
B1686(4) 0
B1687(0) 0
B1688(0) 0
B1689(0) 0
B1690(0) 0
B1691(0) 0
B1692(0) 0
B1693(0) 0
B1694(0) 0
B1695(0) 0
B1696(0) 0
B1697(0) 0
B1698(0) 0
B1699(0) 0
B1700(0) 0
B1701(0) 0
B1702(0) 0
B1703(0) 0
B1704(0) 0
B1705(0) 0
B1706(0) 0
B1707(0) 0
B1708(0) 0
B1709(0) 0
B1710(0) 0
B1711(0) 0
B1712(0) 0
B1713(0) 0
B1714(0) 0
B1715(0) 0
B1716(0) 0
B1717(0) 0
B1718(0) 0
B1719(0) 0
B1720(0) 0
B1721(0) 0
B1722(0) 0
B1723(0) 0
B1724(0) 0
B1725(0) 0
B1726(0) 0
B1727(2) 0
B1728(4) 1
B1729(0) 0
B1730(0) 0
B1731(0) 0
B1732(0) 0
B1733(0) 0
B1734(0) 0
B1735(0) 0
B1736(0) 0
B1737(0) 0
B1738(0) 0
B1739(0) 0
B1740(0) 0
B1741(0) 0
B1742(0) 0
B1743(0) 0
B1744(0) 0
B1745(0) 0
B1746(0) 0
B1747(0) 0
B1748(0) 0
B1749(0) 0
B1750(0) 0
B1751(0) 0
B1752(0) 0
B1753(0) 0
B1754(0) 0
B1755(0) 0
B1756(0) 0
B1757(0) 0
B1758(0) 0
B1759(0) 0
B1760(0) 0
B1761(0) 0
B1762(0) 0
B1763(0) 0
B1764(0) 0
B1765(0) 0
B1766(0) 0
B1767(0) 0
B1768(0) 0
B1769(4) 0
B1770(0) 0
B1771(0) 0
B1772(0) 0
B1773(2) 0
B1774(2) 0
B1775(0) 0
B1776(0) 0
B1777(0) 0
B1778(0) 0
B1779(0) 0
B1780(0) 0
B1781(0) 0
B1782(0) 0
B1783(0) 0
B1784(0) 0
B1785(0) 0
B1786(0) 0
B1787(0) 0
B1788(0) 0
B1789(0) 0
B1790(0) 0
B1791(0) 0
B1792(0) 0
B1793(0) 0
B1794(0) 0
B1795(0) 0
B1796(0) 0
B1797(0) 0
B1798(0) 0
B1799(0) 0
B1800(0) 0
B1801(0) 0
B1802(0) 0
B1803(0) 0
B1804(0) 0
B1805(0) 0
B1806(0) 0
B1807(0) 0
B1808(0) 0
B1809(0) 0
B1810(0) 0
B1811(0) 0
B1812(4) 1
B1813(0) 0
B1814(2) 0
B1815(0) 0
B1816(0) 0
B1817(4) 1
B1818(2) 0
B1819(0) 0
B1820(0) 0
B1821(0) 0
B1822(0) 0
B1823(0) 0
B1824(0) 0
B1825(0) 0
B1826(0) 0
B1827(0) 0
B1828(0) 0
B1829(0) 0
B1830(0) 0
B1831(0) 0
B1832(0) 0
B1833(0) 0
B1834(0) 0
B1835(0) 0
B1836(0) 0
B1837(0) 0
B1838(0) 0
B1839(0) 0
B1840(0) 0
B1841(0) 0
B1842(0) 0
B1843(0) 0
B1844(0) 0
B1845(0) 0
B1846(0) 0
B1847(0) 0
B1848(0) 0
B1849(0) 0
B1850(0) 0
B1851(0) 0
B1852(0) 0
B1853(0) 0
B1854(0) 0
B1855(0) 0
B1856(0) 0
B1857(2) 1
B1858(0) 0
B1859(0) 0
B1860(0) 0
B1861(2) 1
B1862(2) 1
B1863(0) 0
B1864(0) 0
B1865(0) 0
B1866(0) 0
B1867(0) 0
B1868(0) 0
B1869(0) 0
B1870(0) 0
B1871(0) 0
B1872(0) 0
B1873(0) 0
B1874(0) 0
B1875(0) 0
B1876(0) 0
B1877(0) 0
B1878(0) 0
B1879(0) 0
B1880(0) 0
B1881(0) 0
B1882(0) 0
B1883(0) 0
B1884(0) 0
B1885(0) 0
B1886(0) 0
B1887(0) 0
B1888(0) 0
B1889(0) 0
B1890(0) 0
B1891(0) 0
B1892(0) 0
B1893(0) 0
B1894(0) 0
B1895(0) 0
B1896(0) 0
B1897(0) 0
B1898(0) 0
B1899(0) 0
B1900(0) 0
B1901(0) 0
B1902(0) 0
B1903(0) 0
B1904(0) 0
B1905(0) 0
B1906(0) 0
B1907(0) 0
B1908(0) 0
B1909(0) 0
B1910(0) 0
B1911(0) 0
B1912(0) 0
B1913(0) 0
B1914(0) 0
B1915(0) 0
B1916(0) 0
B1917(0) 0
B1918(0) 0
B1919(0) 0
B1920(0) 0
B1921(0) 0
B1922(0) 0
B1923(0) 0
B1924(0) 0
B1925(0) 0
B1926(0) 0
B1927(0) 0
B1928(0) 0
B1929(0) 0
B1930(0) 0
B1931(0) 0
B1932(0) 0
B1933(0) 0
B1934(0) 0
B1935(0) 0
B1936(0) 0
B1937(0) 0
B1938(0) 0
B1939(0) 0
B1940(0) 0
B1941(0) 0
B1942(0) 0
B1943(0) 0
B1944(0) 0
B1945(0) 0
B1946(0) 0
B1947(0) 0
B1948(0) 0
B1949(0) 0
B1950(0) 0
B1951(0) 0
B1952(0) 0
B1953(0) 0
B1954(0) 0
B1955(0) 0
B1956(0) 0
B1957(0) 0
B1958(0) 0
B1959(0) 0
B1960(0) 0
B1961(0) 0
B1962(0) 0
B1963(0) 0
B1964(0) 0
B1965(0) 0
B1966(0) 0
B1967(0) 0
B1968(0) 0
B1969(0) 0
B1970(0) 0
B1971(0) 0
B1972(0) 0
B1973(0) 0
B1974(0) 0
B1975(0) 0
B1976(0) 0
B1977(0) 0
B1978(0) 0
B1979(0) 0
B1980(0) 0
B1981(0) 0
B1982(0) 0
B1983(0) 0
B1984(0) 0
B1985(0) 0
B1986(0) 0
B1987(0) 0
B1988(0) 0
B1989(0) 0
B1990(0) 0
B1991(0) 0
B1992(0) 0
B1993(0) 0
B1994(0) 0
B1995(0) 0
B1996(0) 0
B1997(0) 0
B1998(0) 0
B1999(0) 0
B2000(0) 0
B2001(0) 0
B2002(0) 0
B2003(0) 0
B2004(0) 0
B2005(0) 0
B2006(0) 0
B2007(0) 0
B2008(0) 0
B2009(0) 0
B2010(0) 0
B2011(0) 0
B2012(0) 0
B2013(0) 0
B2014(0) 0
B2015(0) 0
B2016(0) 0
B2017(0) 0
B2018(0) 0
B2019(0) 0
B2020(0) 0
B2021(0) 0
B2022(0) 0
B2023(0) 0
B2024(0) 0
B2025(0) 0
B2026(0) 0
B2027(0) 0
B2028(0) 0
B2029(0) 0
B2030(0) 0
B2031(0) 0
B2032(0) 0
B2033(0) 0
B2034(0) 0
B2035(0) 0
B2036(0) 0
B2037(0) 0
B2038(0) 0
I2039(13) 0
I2040(27) 0
I2041(35) 8
I2042(34) 0
I2043(30) 0
I2044(40) 108
I2045(34) 0
I2046(44) 273
I2047(40) 0
I2048(38) 0
I2049(22) 499
I2050(13) 252
I2051(37) 0
I2052(38) 0
I2053(26) 525
I2054(44) 0
I2055(34) 0
I2056(34) 629
I2057(44) 779
I2058(22) 0
I2059(12) 0
I2060(24) 0
I2061(34) 0
I2062(36) 0
I2063(32) 62
I2064(33) 0
I2065(43) 0
I2066(37) 167
I2067(36) 0
I2068(22) 320
I2069(12) 0
I2070(24) 0
I2071(35) 0
I2072(43) 87
I2073(30) 0
I2074(36) 333
I2075(44) 0
I2076(36) 483
I2077(26) 0
I2078(34) 0
I2079(12) 104
I2080(34) 248
I2081(30) 0
I2082(44) 0
I2083(45) 0
I2084(37) 0
I2085(29) 407
I2086(22) 662
I2087(36) 0
I2088(26) 77
I2089(38) 0
I2090(34) 0
I2091(36) 222
I2092(40) 0
I2093(46) 0
I2094(45) 0
I2095(35) 0
I2096(37) 372
I2097(34) 0
I2098(36) 564
I2099(37) 124
I2100(25) 0
I2101(39) 283
I2102(47) 0
I2103(47) 445
I2104(35) 0
I2105(35) 0
I2106(22) 0
I2107(46) 604
I2108(28) 661
I2109(34) 0
I2110(37) 906
I2111(45) 0
I2112(46) 1130
I2113(38) 0
I2114(38) 0
I2115(36) 0
I2116(22) 1275
I2117(25) 0
I2118(37) 427
I2119(38) 597
I2120(30) 0
I2121(41) 0
I2122(33) 793
I2123(33) 0
I2124(21) 843
I2125(28) 390
I2126(34) 0
I2127(37) 670
I2128(45) 0
I2129(46) 915
I2130(38) 0
I2131(38) 0
I2132(36) 1060
I2133(22) 0
I2134(25) 239
I2135(33) 0
I2136(34) 790
I2137(30) 0
I2138(41) 0
I2139(33) 970
I2140(33) 0
I2141(21) 1025
I2142(1) 9709
